language ESSENCE' 1.0
$ loaded file: carseqdata/csplib-instance-24
letting numcars=200
letting numclasses=23
letting numoptions=5
letting optMax=[1, 2, 1, 2, 1]
letting windowSize=[2, 3, 3, 5, 5]
letting numberPerClass=[3, 1, 49, 13, 3, 2, 33, 1, 1, 2, 8, 1, 1, 14, 1, 3, 35, 10, 4, 10, 1, 2, 2]
letting optionsRequired=[[0, 1, 0, 1, 1], [0, 1, 1, 0, 0], [1, 0, 0, 0, 0], [1, 1, 0, 0, 0], [1, 0, 1, 1, 0], [1, 0, 0, 0, 1], [0, 0, 0, 1, 0], [0, 0, 1, 1, 1], [1, 1, 1, 0, 0], [0, 1, 1, 1, 0], [1, 0, 1, 0, 0], [1, 1, 1, 1, 0], [0, 0, 1, 0, 1], [0, 0, 0, 0, 1], [1, 0, 0, 1, 0], [1, 1, 0, 1, 0], [0, 1, 0, 0, 0], [0, 1, 0, 1, 0], [0, 0, 1, 1, 0], [0, 0, 1, 0, 0], [0, 1, 1, 1, 1], [1, 1, 0, 0, 1], [0, 1, 0, 0, 1]]
